sat
(:eliminated-applications 2
 :eliminated-vars         1
 :max-memory              18.01
 :memory                  17.92
 :nlsat-conflicts         1
 :nlsat-learned-added     1
 :nlsat-propagations      10
 :nlsat-stages            4
 :num-allocs              5149
 :rlimit-count            708
 :time                    0.00
 :total-time              0.02)
